50
3238 6201 85 9829 8222 9991 2634 1995 548 1939 242 6918 3657 8156 7607 3494 1668 3477 303 6484 1898 1488 8885 4371 9461 9803 6640 2498 1478 2466 7367 5119 2980 175 3511 3928 694 2495 2955 4160 4940 5657 8496 2950 949 3032 2161 5757 4763 3211 
215855 413379 5666 655233 548105 666033 175591 132993 36531 129260 16132 461176 243787 543706 507107 232921 111194 231788 20198 432245 126527 99195 592303 291385 630701 653500 442644 166525 98528 164391 491108 341249 198656 11666 234054 261853 46264 166325 196990 277319 329316 377114 566371 196656 63263 202123 144059 383780 317517 214055 
104443
